CPXPARAM_TimeLimit                               3600
CPXPARAM_Read_DataCheck                          1
Tried aggregator 1 time.
MIP Presolve eliminated 2514 rows and 0 columns.
MIP Presolve modified 4324 coefficients.
Reduced MIP has 118066 rows, 54451 columns, and 560714 nonzeros.
Reduced MIP has 2850 binaries, 0 generals, 0 SOSs, and 0 indicators.
Presolve time = 0.09 sec. (156.48 ticks)
Found incumbent of value 11989.000000 after 0.20 sec. (289.15 ticks)
Probing fixed 0 vars, tightened 1 bounds.
Probing time = 0.03 sec. (27.04 ticks)
Tried aggregator 1 time.
Reduced MIP has 118066 rows, 54451 columns, and 560714 nonzeros.
Reduced MIP has 2850 binaries, 0 generals, 0 SOSs, and 0 indicators.
Presolve time = 0.21 sec. (226.28 ticks)
Probing time = 0.03 sec. (24.78 ticks)
MIP emphasis: balance optimality and feasibility.
MIP search method: dynamic search.
Parallel mode: deterministic, using up to 8 threads.
Root relaxation solution time = 1450.67 sec. (469402.45 ticks)

        Nodes                                         Cuts/
   Node  Left     Objective  IInf  Best Integer    Best Bound    ItCnt     Gap

*     0+    0                        11989.0000      970.0000            91.91%
      0     0     1027.0081  2632    11989.0000     1027.0081   507919   91.43%
      0     0     1029.3753  2648    11989.0000    Cuts: 1312   574740   91.41%

Implied bound cuts applied:  564
Flow cuts applied:  673
Mixed integer rounding cuts applied:  2292
Lift and project cuts applied:  1
Gomory fractional cuts applied:  127

Root node processing (before b&c):
  Real time             = 3600.06 sec. (1756279.02 ticks)
Parallel b&c, 8 threads:
  Real time             =    0.00 sec. (0.00 ticks)
  Sync time (average)   =    0.00 sec.
  Wait time (average)   =    0.00 sec.
                          ------------
Total (root+branch&cut) = 3600.06 sec. (1756279.02 ticks)
